instances/knapsack/discrete_knapsack_uncertainty/knapsack_150_16.lp
\ Model knapsack_150_16
\ LP format - for model browsing. Use MPS format to capture full model detail.
\ Signature: 0x1d3d114bfbe69093
Minimize
  - 43 x[0] - 12 x[1] - 41 x[2] - 29 x[3] - 51 x[4] - 54 x[5] - 7 x[6]
   - 25 x[7] - 52 x[8] - 64 x[9] - 72 x[10] - 32 x[11] - 12 x[12]
   - 39 x[13] - 48 x[14] - 49 x[15] - 3 x[16] - 27 x[17] - 4 x[18]
   - 35 x[19] - 79 x[20] - 28 x[21] - 85 x[22] - 81 x[23] - 46 x[24]
   - 4 x[25] - 33 x[26] - 13 x[27] - 95 x[28] - 62 x[29] - 38 x[30]
   - 77 x[31] - 21 x[32] - 92 x[33] - 93 x[34] - 38 x[35] - 98 x[36]
   - 72 x[37] - 44 x[38] - 17 x[39] - 73 x[40] - 63 x[41] - 31 x[42]
   - 84 x[43] - 24 x[44] - 8 x[45] - 18 x[46] - 42 x[47] - 50 x[48]
   - 51 x[49] - 32 x[50] - 72 x[51] - 68 x[52] - 98 x[53] - 9 x[54]
   - 11 x[55] - 100 x[56] - 37 x[57] - 45 x[58] - 20 x[59] - 13 x[60]
   - 47 x[61] - 3 x[62] - 75 x[63] - 52 x[64] - 66 x[65] - 30 x[66]
   - 87 x[67] - 30 x[68] - 83 x[69] - 46 x[70] - 92 x[71] - 98 x[72]
   - 15 x[73] - 68 x[74] - 87 x[75] - 31 x[76] - 86 x[77] - 89 x[78]
   - 53 x[79] - 24 x[80] - 3 x[81] - 11 x[82] - 79 x[83] - 82 x[84]
   - 6 x[85] - 39 x[86] - 20 x[87] - 81 x[88] - 72 x[89] - 31 x[90]
   - 59 x[91] - 75 x[92] - 42 x[93] - 29 x[94] - 12 x[95] - 90 x[96]
   - 21 x[97] - 26 x[98] - 74 x[99] - 70 x[100] - 91 x[101] - 68 x[102]
   - 3 x[103] - 28 x[104] - 88 x[105] - 91 x[106] - 26 x[107] - 39 x[108]
   - 82 x[109] - 31 x[110] - 91 x[111] - 23 x[112] - 89 x[113] - 27 x[114]
   - 82 x[115] - 48 x[116] - 58 x[117] - 91 x[118] - 12 x[119] - 43 x[120]
   - 8 x[121] - 39 x[122] - 28 x[123] - 13 x[124] - 94 x[125] - 30 x[126]
   - 3 x[127] - 85 x[128] - 94 x[129] - 68 x[130] - 56 x[131] - 45 x[132]
   - 72 x[133] - 31 x[134] - 13 x[135] - 62 x[136] - 51 x[137] - 24 x[138]
   - 43 x[139] - 3 x[140] - 18 x[141] - 47 x[142] - 17 x[143] - 89 x[144]
   - 40 x[145] - 70 x[146] - 72 x[147] - 62 x[148] - 72 x[149]
Subject To
 primal_upper: 25 x[0] + 97 x[1] + 51 x[2] + 16 x[3] + 77 x[4] + 75 x[5]
   + 2 x[6] + 77 x[7] + 66 x[8] + 55 x[9] + 53 x[10] + 88 x[11] + 5 x[12]
   + 25 x[13] + 34 x[14] + 70 x[15] + 74 x[16] + 21 x[17] + 46 x[18]
   + 99 x[19] + 42 x[20] + 57 x[21] + 25 x[22] + 88 x[23] + 66 x[24]
   + 41 x[25] + 83 x[26] + 9 x[27] + 35 x[28] + 36 x[29] + 15 x[30]
   + 97 x[31] + 41 x[32] + 22 x[33] + 81 x[34] + 94 x[35] + 69 x[36]
   + 54 x[37] + 61 x[38] + 92 x[39] + 84 x[40] + 87 x[41] + 3 x[42]
   + 63 x[43] + 20 x[44] + 80 x[45] + 3 x[46] + 83 x[47] + 64 x[48]
   + 73 x[49] + 60 x[50] + 5 x[51] + 14 x[52] + 9 x[53] + 58 x[54]
   + 45 x[55] + 82 x[56] + 60 x[57] + x[58] + 19 x[59] + 2 x[60] + 92 x[61]
   + 5 x[62] + 32 x[63] + 73 x[64] + 13 x[65] + 58 x[66] + 8 x[67]
   + 17 x[68] + 39 x[69] + 83 x[70] + 15 x[71] + 99 x[72] + 20 x[73]
   + 25 x[74] + 34 x[75] + 8 x[76] + 44 x[77] + 34 x[78] + 32 x[79]
   + 3 x[80] + 11 x[81] + 12 x[82] + 15 x[83] + 79 x[84] + 19 x[85]
   + 25 x[86] + 69 x[87] + 43 x[88] + 92 x[89] + 6 x[90] + 86 x[91]
   + 90 x[92] + 89 x[93] + 5 x[94] + 42 x[95] + 94 x[96] + 62 x[97]
   + 89 x[98] + 25 x[99] + 86 x[100] + 77 x[101] + 31 x[102] + 13 x[103]
   + 50 x[104] + 15 x[105] + 32 x[106] + 64 x[107] + 32 x[108] + 14 x[109]
   + 12 x[110] + 60 x[111] + 74 x[112] + 70 x[113] + 86 x[114] + 8 x[115]
   + 8 x[116] + 74 x[117] + 10 x[118] + 2 x[119] + 73 x[120] + 62 x[121]
   + 13 x[122] + 56 x[123] + 86 x[124] + 40 x[125] + 37 x[126] + 89 x[127]
   + 4 x[128] + 100 x[129] + 75 x[130] + 14 x[131] + 48 x[132] + 33 x[133]
   + 94 x[134] + 55 x[135] + 78 x[136] + 68 x[137] + 23 x[138] + 85 x[139]
   + 36 x[140] + 50 x[141] + 64 x[142] + 52 x[143] + 90 x[144] + 75 x[145]
   + 87 x[146] + 96 x[147] + 6 x[148] + 7 x[149] + 2.5 r[0] + 9.7 r[1]
   + 5.1 r[2] + 1.6 r[3] + 7.7 r[4] + 7.5 r[5] + 0.2 r[6] + 7.7 r[7]
   + 6.6 r[8] + 5.5 r[9] + 5.3 r[10] + 8.8 r[11] + 0.5 r[12] + 2.5 r[13]
   + 3.4 r[14] + 7 r[15] + 7.4 r[16] + 2.1 r[17] + 4.6 r[18] + 9.9 r[19]
   + 4.2 r[20] + 5.7 r[21] + 2.5 r[22] + 8.8 r[23] + 6.6 r[24] + 4.1 r[25]
   + 8.3 r[26] + 0.9 r[27] + 3.5 r[28] + 3.6 r[29] + 1.5 r[30] + 9.7 r[31]
   + 4.1 r[32] + 2.2 r[33] + 8.1 r[34] + 9.4 r[35] + 6.9 r[36] + 5.4 r[37]
   + 6.1 r[38] + 9.2 r[39] + 8.4 r[40] + 8.7 r[41] + 0.3 r[42] + 6.3 r[43]
   + 2 r[44] + 8 r[45] + 0.3 r[46] + 8.3 r[47] + 6.4 r[48] + 7.3 r[49]
   + 6 r[50] + 0.5 r[51] + 1.4 r[52] + 0.9 r[53] + 5.8 r[54] + 4.5 r[55]
   + 8.2 r[56] + 6 r[57] + 0.1 r[58] + 1.9 r[59] + 0.2 r[60] + 9.2 r[61]
   + 0.5 r[62] + 3.2 r[63] + 7.3 r[64] + 1.3 r[65] + 5.8 r[66] + 0.8 r[67]
   + 1.7 r[68] + 3.9 r[69] + 8.3 r[70] + 1.5 r[71] + 9.9 r[72] + 2 r[73]
   + 2.5 r[74] + 3.4 r[75] + 0.8 r[76] + 4.4 r[77] + 3.4 r[78] + 3.2 r[79]
   + 0.3 r[80] + 1.1 r[81] + 1.2 r[82] + 1.5 r[83] + 7.9 r[84] + 1.9 r[85]
   + 2.5 r[86] + 6.9 r[87] + 4.3 r[88] + 9.2 r[89] + 0.6 r[90] + 8.6 r[91]
   + 9 r[92] + 8.9 r[93] + 0.5 r[94] + 4.2 r[95] + 9.4 r[96] + 6.2 r[97]
   + 8.9 r[98] + 2.5 r[99] + 8.6 r[100] + 7.7 r[101] + 3.1 r[102]
   + 1.3 r[103] + 5 r[104] + 1.5 r[105] + 3.2 r[106] + 6.4 r[107]
   + 3.2 r[108] + 1.4 r[109] + 1.2 r[110] + 6 r[111] + 7.4 r[112]
   + 7 r[113] + 8.6 r[114] + 0.8 r[115] + 0.8 r[116] + 7.4 r[117] + r[118]
   + 0.2 r[119] + 7.3 r[120] + 6.2 r[121] + 1.3 r[122] + 5.6 r[123]
   + 8.6 r[124] + 4 r[125] + 3.7 r[126] + 8.9 r[127] + 0.4 r[128]
   + 10 r[129] + 7.5 r[130] + 1.4 r[131] + 4.8 r[132] + 3.3 r[133]
   + 9.4 r[134] + 5.5 r[135] + 7.8 r[136] + 6.8 r[137] + 2.3 r[138]
   + 8.5 r[139] + 3.6 r[140] + 5 r[141] + 6.4 r[142] + 5.2 r[143]
   + 9 r[144] + 7.5 r[145] + 8.7 r[146] + 9.6 r[147] + 0.6 r[148]
   + 0.7 r[149] <= 693
 primal_lower: 1.584478301769009 x[0] + 0.990539447851176 x[1]
   + 2.386890104820018 x[2] + 4.391196527250721 x[3]
   + 1.60527531733252 x[4] + 1.813789755450122 x[5]
   + 4.590433739228478 x[6] + 2.546642017755408 x[7]
   + 3.694522694906626 x[8] + 0.3476551013839175 x[9]
   + 1.801536977587659 x[10] + 0.1056460406048158 x[11]
   + 0.7469646880055206 x[12] + 0.401112786243696 x[13]
   + 3.835427154679058 x[14] + 1.247697930098954 x[15]
   + 1.989086682906228 x[16] + 2.533112144264539 x[17]
   + 2.044748710008699 x[18] + 2.388186128712775 x[19]
   + 1.55430493209336 x[20] + 4.715569733095206 x[21]
   + 0.355013511225406 x[22] + 2.721498202108742 x[23]
   + 0.3165237500953111 x[24] + 1.393783465557616 x[25]
   + 4.057277205654409 x[26] + 0.8820344331484766 x[27]
   + 1.383861516686336 x[28] + 2.047396525289166 x[29]
   + 3.468590271218547 x[30] + 2.562309286591622 x[31]
   + 3.328570506508454 x[32] + 3.495607091205511 x[33]
   + 3.01183593989985 x[34] + 0.6772466961460888 x[35]
   + 3.626430836257708 x[36] + 1.061350208286943 x[37]
   + 1.051179694794755 x[38] + 3.039957909648709 x[39]
   + 4.294573390678293 x[40] + 0.0573691670659865 x[41]
   + 1.909285854632211 x[42] + 3.31240535414861 x[43]
   + 2.132605528317538 x[44] + 3.041321735060334 x[45]
   + 0.8785876690304821 x[46] + 2.24286476148183 x[47]
   + 1.407363384723137 x[48] + 2.791199215749463 x[49]
   + 4.529750021525266 x[50] + 1.536951146155747 x[51]
   + 4.720506557804813 x[52] + 2.439334370519368 x[53]
   + 2.453637837007864 x[54] + 0.2436805631563718 x[55]
   + 0.4117154953903027 x[56] + 0.2316831649575133 x[57]
   + 4.536241626226911 x[58] + 4.339521995062901 x[59]
   + 0.8950663162050635 x[60] + 3.50175142039879 x[61]
   + 4.61751830075068 x[62] + 1.529784987952656 x[63]
   + 1.886952016524037 x[64] + 1.472307786731476 x[65]
   + 1.97965371107021 x[66] + 0.0437898362144558 x[67]
   + 1.983082218106343 x[68] + 0.3162661909602285 x[69]
   + 4.212153078161124 x[70] + 1.561456782646343 x[71]
   + 1.787191607574772 x[72] + 0.0567572357629099 x[73]
   + 2.793279841407047 x[74] + 2.530325265425483 x[75]
   + 2.639677596907958 x[76] + 1.25244479764271 x[77]
   + 3.034182891493181 x[78] + 2.684337112330363 x[79]
   + 0.533698663142927 x[80] + 2.944378878888145 x[81]
   + 2.607685746500985 x[82] + 0.2049671150569982 x[83]
   + 0.0894149850747449 x[84] + 1.203513093268061 x[85]
   + 1.872326108257936 x[86] + 2.134676429334932 x[87]
   + 2.00642904776991 x[88] + 2.546321320313819 x[89]
   + 2.692396419542207 x[90] + 2.628796516409851 x[91]
   + 3.199491795842592 x[92] + 2.190951730570589 x[93]
   + 4.230992529754507 x[94] + 0.8283228125191513 x[95]
   + 1.691570360275363 x[96] + 0.3875157359788116 x[97]
   + 2.933650497654133 x[98] + 1.885479080155376 x[99]
   + 0.5138655121236114 x[100] + 3.102666796740078 x[101]
   + 3.938784640144839 x[102] + 2.168696007510036 x[103]
   + 2.866495993309875 x[104] + 3.743018151236596 x[105]
   + 1.854236037536123 x[106] + 1.227243091765417 x[107]
   + 1.992722042091715 x[108] + 3.017340431047193 x[109]
   + 4.206341599346038 x[110] + 4.189230405572894 x[111]
   + 0.9137183747672671 x[112] + 0.1647112669674345 x[113]
   + 1.42950441188525 x[114] + 2.909381020842408 x[115]
   + 2.836920450176701 x[116] + 0.3700252578669164 x[117]
   + 0.1216163028699721 x[118] + 4.725589616198364 x[119]
   + 0.8647844791673771 x[120] + 2.060102788230179 x[121]
   + 0.2391449148542734 x[122] + 2.14210960916654 x[123]
   + 0.3946358718166455 x[124] + 1.007897759144917 x[125]
   + 4.1483771396384 x[126] + 2.877267809741037 x[127]
   + 1.207014283678017 x[128] + 0.6122751770821221 x[129]
   + 0.3367286692307691 x[130] + 3.441808541813296 x[131]
   + 0.7802548963086126 x[132] + 1.931319633631422 x[133]
   + 4.132976429220435 x[134] + 0.7465893402436723 x[135]
   + 3.004456904896525 x[136] + 4.355886764986448 x[137]
   + 1.802090893997607 x[138] + 3.257212459976872 x[139]
   + 4.589940229952263 x[140] + 1.961191511124517 x[141]
   + 3.124916599118636 x[142] + 3.940417047932547 x[143]
   + 0.5925046241197606 x[144] + 4.450279475540396 x[145]
   + 4.804423109066189 x[146] + 2.583425707744558 x[147]
   + 1.903295387398713 x[148] + 4.286566717696551 x[149] + 28 u[0]
   + 20 u[1] + 26 u[2] + 7 u[3] + 4 u[4] + 70 u[5] + 45 u[6] + 100 u[7]
   + 33 u[8] + 30 u[9] + 12 u[10] + 35 u[11] + 8 u[12] + 92 u[13]
   + 45 u[14] + u[15] + 89 u[16] + 48 u[17] + 33 u[18] + 74 u[19]
   + 57 u[20] + 24 u[21] + 40 u[22] + 51 u[23] + 53 u[24] + 56 u[25]
   + 78 u[26] + 76 u[27] + 30 u[28] + 83 u[29] + 18 u[30] + 36 u[31]
   + 56 u[32] + 93 u[33] + 64 u[34] + 77 u[35] + 60 u[36] + 85 u[37]
   + 60 u[38] + 87 u[39] + 63 u[40] + 94 u[41] + 62 u[42] + 62 u[43]
   + 75 u[44] + 71 u[45] + 18 u[46] + 14 u[47] + 95 u[48] + 32 u[49]
   + 7 u[50] + 92 u[51] + 5 u[52] + 48 u[53] + 73 u[54] + 40 u[55]
   + 93 u[56] + 15 u[57] + 24 u[58] + 50 u[59] + 97 u[60] + 15 u[61]
   + 64 u[62] + 19 u[63] + 72 u[64] + 48 u[65] + 45 u[66] + 95 u[67]
   + 68 u[68] + 6 u[69] + 10 u[70] + 70 u[71] + 50 u[72] + 19 u[73]
   + 8 u[74] + 69 u[75] + 47 u[76] + 87 u[77] + 65 u[78] + 83 u[79]
   + 30 u[80] + 94 u[81] + 11 u[82] + 18 u[83] + 14 u[84] + 2 u[85]
   + 24 u[86] + 48 u[87] + 86 u[88] + 75 u[89] + 53 u[90] + 53 u[91]
   + 9 u[92] + 64 u[93] + 24 u[94] + 41 u[95] + 53 u[96] + 93 u[97]
   + 8 u[98] + 64 u[99] + 5 u[100] + 16 u[101] + 50 u[102] + 44 u[103]
   + 93 u[104] + 18 u[105] + 19 u[106] + 71 u[107] + 51 u[108] + 81 u[109]
   + 51 u[110] + 51 u[111] + 49 u[112] + 13 u[113] + 81 u[114] + 59 u[115]
   + 59 u[116] + 77 u[117] + 29 u[118] + 57 u[119] + 72 u[120] + 77 u[121]
   + 8 u[122] + 23 u[123] + 17 u[124] + 87 u[125] + 96 u[126] + 80 u[127]
   + 87 u[128] + 67 u[129] + 30 u[130] + 85 u[131] + 99 u[132] + 92 u[133]
   + 69 u[134] + 6 u[135] + 85 u[136] + 3 u[137] + 66 u[138] + 88 u[139]
   + 31 u[140] + 21 u[141] + 99 u[142] + 35 u[143] + u[144] + 98 u[145]
   + 58 u[146] + 7 u[147] + 93 u[148] + 70 u[149] <= 98890
 mccormick1[0]: - u[0] + r[0] <= 0
 mccormick1[1]: - u[1] + r[1] <= 0
 mccormick1[2]: - u[2] + r[2] <= 0
 mccormick1[3]: - u[3] + r[3] <= 0
 mccormick1[4]: - u[4] + r[4] <= 0
 mccormick1[5]: - u[5] + r[5] <= 0
 mccormick1[6]: - u[6] + r[6] <= 0
 mccormick1[7]: - u[7] + r[7] <= 0
 mccormick1[8]: - u[8] + r[8] <= 0
 mccormick1[9]: - u[9] + r[9] <= 0
 mccormick1[10]: - u[10] + r[10] <= 0
 mccormick1[11]: - u[11] + r[11] <= 0
 mccormick1[12]: - u[12] + r[12] <= 0
 mccormick1[13]: - u[13] + r[13] <= 0
 mccormick1[14]: - u[14] + r[14] <= 0
 mccormick1[15]: - u[15] + r[15] <= 0
 mccormick1[16]: - u[16] + r[16] <= 0
 mccormick1[17]: - u[17] + r[17] <= 0
 mccormick1[18]: - u[18] + r[18] <= 0
 mccormick1[19]: - u[19] + r[19] <= 0
 mccormick1[20]: - u[20] + r[20] <= 0
 mccormick1[21]: - u[21] + r[21] <= 0
 mccormick1[22]: - u[22] + r[22] <= 0
 mccormick1[23]: - u[23] + r[23] <= 0
 mccormick1[24]: - u[24] + r[24] <= 0
 mccormick1[25]: - u[25] + r[25] <= 0
 mccormick1[26]: - u[26] + r[26] <= 0
 mccormick1[27]: - u[27] + r[27] <= 0
 mccormick1[28]: - u[28] + r[28] <= 0
 mccormick1[29]: - u[29] + r[29] <= 0
 mccormick1[30]: - u[30] + r[30] <= 0
 mccormick1[31]: - u[31] + r[31] <= 0
 mccormick1[32]: - u[32] + r[32] <= 0
 mccormick1[33]: - u[33] + r[33] <= 0
 mccormick1[34]: - u[34] + r[34] <= 0
 mccormick1[35]: - u[35] + r[35] <= 0
 mccormick1[36]: - u[36] + r[36] <= 0
 mccormick1[37]: - u[37] + r[37] <= 0
 mccormick1[38]: - u[38] + r[38] <= 0
 mccormick1[39]: - u[39] + r[39] <= 0
 mccormick1[40]: - u[40] + r[40] <= 0
 mccormick1[41]: - u[41] + r[41] <= 0
 mccormick1[42]: - u[42] + r[42] <= 0
 mccormick1[43]: - u[43] + r[43] <= 0
 mccormick1[44]: - u[44] + r[44] <= 0
 mccormick1[45]: - u[45] + r[45] <= 0
 mccormick1[46]: - u[46] + r[46] <= 0
 mccormick1[47]: - u[47] + r[47] <= 0
 mccormick1[48]: - u[48] + r[48] <= 0
 mccormick1[49]: - u[49] + r[49] <= 0
 mccormick1[50]: - u[50] + r[50] <= 0
 mccormick1[51]: - u[51] + r[51] <= 0
 mccormick1[52]: - u[52] + r[52] <= 0
 mccormick1[53]: - u[53] + r[53] <= 0
 mccormick1[54]: - u[54] + r[54] <= 0
 mccormick1[55]: - u[55] + r[55] <= 0
 mccormick1[56]: - u[56] + r[56] <= 0
 mccormick1[57]: - u[57] + r[57] <= 0
 mccormick1[58]: - u[58] + r[58] <= 0
 mccormick1[59]: - u[59] + r[59] <= 0
 mccormick1[60]: - u[60] + r[60] <= 0
 mccormick1[61]: - u[61] + r[61] <= 0
 mccormick1[62]: - u[62] + r[62] <= 0
 mccormick1[63]: - u[63] + r[63] <= 0
 mccormick1[64]: - u[64] + r[64] <= 0
 mccormick1[65]: - u[65] + r[65] <= 0
 mccormick1[66]: - u[66] + r[66] <= 0
 mccormick1[67]: - u[67] + r[67] <= 0
 mccormick1[68]: - u[68] + r[68] <= 0
 mccormick1[69]: - u[69] + r[69] <= 0
 mccormick1[70]: - u[70] + r[70] <= 0
 mccormick1[71]: - u[71] + r[71] <= 0
 mccormick1[72]: - u[72] + r[72] <= 0
 mccormick1[73]: - u[73] + r[73] <= 0
 mccormick1[74]: - u[74] + r[74] <= 0
 mccormick1[75]: - u[75] + r[75] <= 0
 mccormick1[76]: - u[76] + r[76] <= 0
 mccormick1[77]: - u[77] + r[77] <= 0
 mccormick1[78]: - u[78] + r[78] <= 0
 mccormick1[79]: - u[79] + r[79] <= 0
 mccormick1[80]: - u[80] + r[80] <= 0
 mccormick1[81]: - u[81] + r[81] <= 0
 mccormick1[82]: - u[82] + r[82] <= 0
 mccormick1[83]: - u[83] + r[83] <= 0
 mccormick1[84]: - u[84] + r[84] <= 0
 mccormick1[85]: - u[85] + r[85] <= 0
 mccormick1[86]: - u[86] + r[86] <= 0
 mccormick1[87]: - u[87] + r[87] <= 0
 mccormick1[88]: - u[88] + r[88] <= 0
 mccormick1[89]: - u[89] + r[89] <= 0
 mccormick1[90]: - u[90] + r[90] <= 0
 mccormick1[91]: - u[91] + r[91] <= 0
 mccormick1[92]: - u[92] + r[92] <= 0
 mccormick1[93]: - u[93] + r[93] <= 0
 mccormick1[94]: - u[94] + r[94] <= 0
 mccormick1[95]: - u[95] + r[95] <= 0
 mccormick1[96]: - u[96] + r[96] <= 0
 mccormick1[97]: - u[97] + r[97] <= 0
 mccormick1[98]: - u[98] + r[98] <= 0
 mccormick1[99]: - u[99] + r[99] <= 0
 mccormick1[100]: - u[100] + r[100] <= 0
 mccormick1[101]: - u[101] + r[101] <= 0
 mccormick1[102]: - u[102] + r[102] <= 0
 mccormick1[103]: - u[103] + r[103] <= 0
 mccormick1[104]: - u[104] + r[104] <= 0
 mccormick1[105]: - u[105] + r[105] <= 0
 mccormick1[106]: - u[106] + r[106] <= 0
 mccormick1[107]: - u[107] + r[107] <= 0
 mccormick1[108]: - u[108] + r[108] <= 0
 mccormick1[109]: - u[109] + r[109] <= 0
 mccormick1[110]: - u[110] + r[110] <= 0
 mccormick1[111]: - u[111] + r[111] <= 0
 mccormick1[112]: - u[112] + r[112] <= 0
 mccormick1[113]: - u[113] + r[113] <= 0
 mccormick1[114]: - u[114] + r[114] <= 0
 mccormick1[115]: - u[115] + r[115] <= 0
 mccormick1[116]: - u[116] + r[116] <= 0
 mccormick1[117]: - u[117] + r[117] <= 0
 mccormick1[118]: - u[118] + r[118] <= 0
 mccormick1[119]: - u[119] + r[119] <= 0
 mccormick1[120]: - u[120] + r[120] <= 0
 mccormick1[121]: - u[121] + r[121] <= 0
 mccormick1[122]: - u[122] + r[122] <= 0
 mccormick1[123]: - u[123] + r[123] <= 0
 mccormick1[124]: - u[124] + r[124] <= 0
 mccormick1[125]: - u[125] + r[125] <= 0
 mccormick1[126]: - u[126] + r[126] <= 0
 mccormick1[127]: - u[127] + r[127] <= 0
 mccormick1[128]: - u[128] + r[128] <= 0
 mccormick1[129]: - u[129] + r[129] <= 0
 mccormick1[130]: - u[130] + r[130] <= 0
 mccormick1[131]: - u[131] + r[131] <= 0
 mccormick1[132]: - u[132] + r[132] <= 0
 mccormick1[133]: - u[133] + r[133] <= 0
 mccormick1[134]: - u[134] + r[134] <= 0
 mccormick1[135]: - u[135] + r[135] <= 0
 mccormick1[136]: - u[136] + r[136] <= 0
 mccormick1[137]: - u[137] + r[137] <= 0
 mccormick1[138]: - u[138] + r[138] <= 0
 mccormick1[139]: - u[139] + r[139] <= 0
 mccormick1[140]: - u[140] + r[140] <= 0
 mccormick1[141]: - u[141] + r[141] <= 0
 mccormick1[142]: - u[142] + r[142] <= 0
 mccormick1[143]: - u[143] + r[143] <= 0
 mccormick1[144]: - u[144] + r[144] <= 0
 mccormick1[145]: - u[145] + r[145] <= 0
 mccormick1[146]: - u[146] + r[146] <= 0
 mccormick1[147]: - u[147] + r[147] <= 0
 mccormick1[148]: - u[148] + r[148] <= 0
 mccormick1[149]: - u[149] + r[149] <= 0
 mccormick2[0]: - x[0] + r[0] <= 0
 mccormick2[1]: - x[1] + r[1] <= 0
 mccormick2[2]: - x[2] + r[2] <= 0
 mccormick2[3]: - x[3] + r[3] <= 0
 mccormick2[4]: - x[4] + r[4] <= 0
 mccormick2[5]: - x[5] + r[5] <= 0
 mccormick2[6]: - x[6] + r[6] <= 0
 mccormick2[7]: - x[7] + r[7] <= 0
 mccormick2[8]: - x[8] + r[8] <= 0
 mccormick2[9]: - x[9] + r[9] <= 0
 mccormick2[10]: - x[10] + r[10] <= 0
 mccormick2[11]: - x[11] + r[11] <= 0
 mccormick2[12]: - x[12] + r[12] <= 0
 mccormick2[13]: - x[13] + r[13] <= 0
 mccormick2[14]: - x[14] + r[14] <= 0
 mccormick2[15]: - x[15] + r[15] <= 0
 mccormick2[16]: - x[16] + r[16] <= 0
 mccormick2[17]: - x[17] + r[17] <= 0
 mccormick2[18]: - x[18] + r[18] <= 0
 mccormick2[19]: - x[19] + r[19] <= 0
 mccormick2[20]: - x[20] + r[20] <= 0
 mccormick2[21]: - x[21] + r[21] <= 0
 mccormick2[22]: - x[22] + r[22] <= 0
 mccormick2[23]: - x[23] + r[23] <= 0
 mccormick2[24]: - x[24] + r[24] <= 0
 mccormick2[25]: - x[25] + r[25] <= 0
 mccormick2[26]: - x[26] + r[26] <= 0
 mccormick2[27]: - x[27] + r[27] <= 0
 mccormick2[28]: - x[28] + r[28] <= 0
 mccormick2[29]: - x[29] + r[29] <= 0
 mccormick2[30]: - x[30] + r[30] <= 0
 mccormick2[31]: - x[31] + r[31] <= 0
 mccormick2[32]: - x[32] + r[32] <= 0
 mccormick2[33]: - x[33] + r[33] <= 0
 mccormick2[34]: - x[34] + r[34] <= 0
 mccormick2[35]: - x[35] + r[35] <= 0
 mccormick2[36]: - x[36] + r[36] <= 0
 mccormick2[37]: - x[37] + r[37] <= 0
 mccormick2[38]: - x[38] + r[38] <= 0
 mccormick2[39]: - x[39] + r[39] <= 0
 mccormick2[40]: - x[40] + r[40] <= 0
 mccormick2[41]: - x[41] + r[41] <= 0
 mccormick2[42]: - x[42] + r[42] <= 0
 mccormick2[43]: - x[43] + r[43] <= 0
 mccormick2[44]: - x[44] + r[44] <= 0
 mccormick2[45]: - x[45] + r[45] <= 0
 mccormick2[46]: - x[46] + r[46] <= 0
 mccormick2[47]: - x[47] + r[47] <= 0
 mccormick2[48]: - x[48] + r[48] <= 0
 mccormick2[49]: - x[49] + r[49] <= 0
 mccormick2[50]: - x[50] + r[50] <= 0
 mccormick2[51]: - x[51] + r[51] <= 0
 mccormick2[52]: - x[52] + r[52] <= 0
 mccormick2[53]: - x[53] + r[53] <= 0
 mccormick2[54]: - x[54] + r[54] <= 0
 mccormick2[55]: - x[55] + r[55] <= 0
 mccormick2[56]: - x[56] + r[56] <= 0
 mccormick2[57]: - x[57] + r[57] <= 0
 mccormick2[58]: - x[58] + r[58] <= 0
 mccormick2[59]: - x[59] + r[59] <= 0
 mccormick2[60]: - x[60] + r[60] <= 0
 mccormick2[61]: - x[61] + r[61] <= 0
 mccormick2[62]: - x[62] + r[62] <= 0
 mccormick2[63]: - x[63] + r[63] <= 0
 mccormick2[64]: - x[64] + r[64] <= 0
 mccormick2[65]: - x[65] + r[65] <= 0
 mccormick2[66]: - x[66] + r[66] <= 0
 mccormick2[67]: - x[67] + r[67] <= 0
 mccormick2[68]: - x[68] + r[68] <= 0
 mccormick2[69]: - x[69] + r[69] <= 0
 mccormick2[70]: - x[70] + r[70] <= 0
 mccormick2[71]: - x[71] + r[71] <= 0
 mccormick2[72]: - x[72] + r[72] <= 0
 mccormick2[73]: - x[73] + r[73] <= 0
 mccormick2[74]: - x[74] + r[74] <= 0
 mccormick2[75]: - x[75] + r[75] <= 0
 mccormick2[76]: - x[76] + r[76] <= 0
 mccormick2[77]: - x[77] + r[77] <= 0
 mccormick2[78]: - x[78] + r[78] <= 0
 mccormick2[79]: - x[79] + r[79] <= 0
 mccormick2[80]: - x[80] + r[80] <= 0
 mccormick2[81]: - x[81] + r[81] <= 0
 mccormick2[82]: - x[82] + r[82] <= 0
 mccormick2[83]: - x[83] + r[83] <= 0
 mccormick2[84]: - x[84] + r[84] <= 0
 mccormick2[85]: - x[85] + r[85] <= 0
 mccormick2[86]: - x[86] + r[86] <= 0
 mccormick2[87]: - x[87] + r[87] <= 0
 mccormick2[88]: - x[88] + r[88] <= 0
 mccormick2[89]: - x[89] + r[89] <= 0
 mccormick2[90]: - x[90] + r[90] <= 0
 mccormick2[91]: - x[91] + r[91] <= 0
 mccormick2[92]: - x[92] + r[92] <= 0
 mccormick2[93]: - x[93] + r[93] <= 0
 mccormick2[94]: - x[94] + r[94] <= 0
 mccormick2[95]: - x[95] + r[95] <= 0
 mccormick2[96]: - x[96] + r[96] <= 0
 mccormick2[97]: - x[97] + r[97] <= 0
 mccormick2[98]: - x[98] + r[98] <= 0
 mccormick2[99]: - x[99] + r[99] <= 0
 mccormick2[100]: - x[100] + r[100] <= 0
 mccormick2[101]: - x[101] + r[101] <= 0
 mccormick2[102]: - x[102] + r[102] <= 0
 mccormick2[103]: - x[103] + r[103] <= 0
 mccormick2[104]: - x[104] + r[104] <= 0
 mccormick2[105]: - x[105] + r[105] <= 0
 mccormick2[106]: - x[106] + r[106] <= 0
 mccormick2[107]: - x[107] + r[107] <= 0
 mccormick2[108]: - x[108] + r[108] <= 0
 mccormick2[109]: - x[109] + r[109] <= 0
 mccormick2[110]: - x[110] + r[110] <= 0
 mccormick2[111]: - x[111] + r[111] <= 0
 mccormick2[112]: - x[112] + r[112] <= 0
 mccormick2[113]: - x[113] + r[113] <= 0
 mccormick2[114]: - x[114] + r[114] <= 0
 mccormick2[115]: - x[115] + r[115] <= 0
 mccormick2[116]: - x[116] + r[116] <= 0
 mccormick2[117]: - x[117] + r[117] <= 0
 mccormick2[118]: - x[118] + r[118] <= 0
 mccormick2[119]: - x[119] + r[119] <= 0
 mccormick2[120]: - x[120] + r[120] <= 0
 mccormick2[121]: - x[121] + r[121] <= 0
 mccormick2[122]: - x[122] + r[122] <= 0
 mccormick2[123]: - x[123] + r[123] <= 0
 mccormick2[124]: - x[124] + r[124] <= 0
 mccormick2[125]: - x[125] + r[125] <= 0
 mccormick2[126]: - x[126] + r[126] <= 0
 mccormick2[127]: - x[127] + r[127] <= 0
 mccormick2[128]: - x[128] + r[128] <= 0
 mccormick2[129]: - x[129] + r[129] <= 0
 mccormick2[130]: - x[130] + r[130] <= 0
 mccormick2[131]: - x[131] + r[131] <= 0
 mccormick2[132]: - x[132] + r[132] <= 0
 mccormick2[133]: - x[133] + r[133] <= 0
 mccormick2[134]: - x[134] + r[134] <= 0
 mccormick2[135]: - x[135] + r[135] <= 0
 mccormick2[136]: - x[136] + r[136] <= 0
 mccormick2[137]: - x[137] + r[137] <= 0
 mccormick2[138]: - x[138] + r[138] <= 0
 mccormick2[139]: - x[139] + r[139] <= 0
 mccormick2[140]: - x[140] + r[140] <= 0
 mccormick2[141]: - x[141] + r[141] <= 0
 mccormick2[142]: - x[142] + r[142] <= 0
 mccormick2[143]: - x[143] + r[143] <= 0
 mccormick2[144]: - x[144] + r[144] <= 0
 mccormick2[145]: - x[145] + r[145] <= 0
 mccormick2[146]: - x[146] + r[146] <= 0
 mccormick2[147]: - x[147] + r[147] <= 0
 mccormick2[148]: - x[148] + r[148] <= 0
 mccormick2[149]: - x[149] + r[149] <= 0
 mccormick3[0]: x[0] + u[0] - r[0] <= 1
 mccormick3[1]: x[1] + u[1] - r[1] <= 1
 mccormick3[2]: x[2] + u[2] - r[2] <= 1
 mccormick3[3]: x[3] + u[3] - r[3] <= 1
 mccormick3[4]: x[4] + u[4] - r[4] <= 1
 mccormick3[5]: x[5] + u[5] - r[5] <= 1
 mccormick3[6]: x[6] + u[6] - r[6] <= 1
 mccormick3[7]: x[7] + u[7] - r[7] <= 1
 mccormick3[8]: x[8] + u[8] - r[8] <= 1
 mccormick3[9]: x[9] + u[9] - r[9] <= 1
 mccormick3[10]: x[10] + u[10] - r[10] <= 1
 mccormick3[11]: x[11] + u[11] - r[11] <= 1
 mccormick3[12]: x[12] + u[12] - r[12] <= 1
 mccormick3[13]: x[13] + u[13] - r[13] <= 1
 mccormick3[14]: x[14] + u[14] - r[14] <= 1
 mccormick3[15]: x[15] + u[15] - r[15] <= 1
 mccormick3[16]: x[16] + u[16] - r[16] <= 1
 mccormick3[17]: x[17] + u[17] - r[17] <= 1
 mccormick3[18]: x[18] + u[18] - r[18] <= 1
 mccormick3[19]: x[19] + u[19] - r[19] <= 1
 mccormick3[20]: x[20] + u[20] - r[20] <= 1
 mccormick3[21]: x[21] + u[21] - r[21] <= 1
 mccormick3[22]: x[22] + u[22] - r[22] <= 1
 mccormick3[23]: x[23] + u[23] - r[23] <= 1
 mccormick3[24]: x[24] + u[24] - r[24] <= 1
 mccormick3[25]: x[25] + u[25] - r[25] <= 1
 mccormick3[26]: x[26] + u[26] - r[26] <= 1
 mccormick3[27]: x[27] + u[27] - r[27] <= 1
 mccormick3[28]: x[28] + u[28] - r[28] <= 1
 mccormick3[29]: x[29] + u[29] - r[29] <= 1
 mccormick3[30]: x[30] + u[30] - r[30] <= 1
 mccormick3[31]: x[31] + u[31] - r[31] <= 1
 mccormick3[32]: x[32] + u[32] - r[32] <= 1
 mccormick3[33]: x[33] + u[33] - r[33] <= 1
 mccormick3[34]: x[34] + u[34] - r[34] <= 1
 mccormick3[35]: x[35] + u[35] - r[35] <= 1
 mccormick3[36]: x[36] + u[36] - r[36] <= 1
 mccormick3[37]: x[37] + u[37] - r[37] <= 1
 mccormick3[38]: x[38] + u[38] - r[38] <= 1
 mccormick3[39]: x[39] + u[39] - r[39] <= 1
 mccormick3[40]: x[40] + u[40] - r[40] <= 1
 mccormick3[41]: x[41] + u[41] - r[41] <= 1
 mccormick3[42]: x[42] + u[42] - r[42] <= 1
 mccormick3[43]: x[43] + u[43] - r[43] <= 1
 mccormick3[44]: x[44] + u[44] - r[44] <= 1
 mccormick3[45]: x[45] + u[45] - r[45] <= 1
 mccormick3[46]: x[46] + u[46] - r[46] <= 1
 mccormick3[47]: x[47] + u[47] - r[47] <= 1
 mccormick3[48]: x[48] + u[48] - r[48] <= 1
 mccormick3[49]: x[49] + u[49] - r[49] <= 1
 mccormick3[50]: x[50] + u[50] - r[50] <= 1
 mccormick3[51]: x[51] + u[51] - r[51] <= 1
 mccormick3[52]: x[52] + u[52] - r[52] <= 1
 mccormick3[53]: x[53] + u[53] - r[53] <= 1
 mccormick3[54]: x[54] + u[54] - r[54] <= 1
 mccormick3[55]: x[55] + u[55] - r[55] <= 1
 mccormick3[56]: x[56] + u[56] - r[56] <= 1
 mccormick3[57]: x[57] + u[57] - r[57] <= 1
 mccormick3[58]: x[58] + u[58] - r[58] <= 1
 mccormick3[59]: x[59] + u[59] - r[59] <= 1
 mccormick3[60]: x[60] + u[60] - r[60] <= 1
 mccormick3[61]: x[61] + u[61] - r[61] <= 1
 mccormick3[62]: x[62] + u[62] - r[62] <= 1
 mccormick3[63]: x[63] + u[63] - r[63] <= 1
 mccormick3[64]: x[64] + u[64] - r[64] <= 1
 mccormick3[65]: x[65] + u[65] - r[65] <= 1
 mccormick3[66]: x[66] + u[66] - r[66] <= 1
 mccormick3[67]: x[67] + u[67] - r[67] <= 1
 mccormick3[68]: x[68] + u[68] - r[68] <= 1
 mccormick3[69]: x[69] + u[69] - r[69] <= 1
 mccormick3[70]: x[70] + u[70] - r[70] <= 1
 mccormick3[71]: x[71] + u[71] - r[71] <= 1
 mccormick3[72]: x[72] + u[72] - r[72] <= 1
 mccormick3[73]: x[73] + u[73] - r[73] <= 1
 mccormick3[74]: x[74] + u[74] - r[74] <= 1
 mccormick3[75]: x[75] + u[75] - r[75] <= 1
 mccormick3[76]: x[76] + u[76] - r[76] <= 1
 mccormick3[77]: x[77] + u[77] - r[77] <= 1
 mccormick3[78]: x[78] + u[78] - r[78] <= 1
 mccormick3[79]: x[79] + u[79] - r[79] <= 1
 mccormick3[80]: x[80] + u[80] - r[80] <= 1
 mccormick3[81]: x[81] + u[81] - r[81] <= 1
 mccormick3[82]: x[82] + u[82] - r[82] <= 1
 mccormick3[83]: x[83] + u[83] - r[83] <= 1
 mccormick3[84]: x[84] + u[84] - r[84] <= 1
 mccormick3[85]: x[85] + u[85] - r[85] <= 1
 mccormick3[86]: x[86] + u[86] - r[86] <= 1
 mccormick3[87]: x[87] + u[87] - r[87] <= 1
 mccormick3[88]: x[88] + u[88] - r[88] <= 1
 mccormick3[89]: x[89] + u[89] - r[89] <= 1
 mccormick3[90]: x[90] + u[90] - r[90] <= 1
 mccormick3[91]: x[91] + u[91] - r[91] <= 1
 mccormick3[92]: x[92] + u[92] - r[92] <= 1
 mccormick3[93]: x[93] + u[93] - r[93] <= 1
 mccormick3[94]: x[94] + u[94] - r[94] <= 1
 mccormick3[95]: x[95] + u[95] - r[95] <= 1
 mccormick3[96]: x[96] + u[96] - r[96] <= 1
 mccormick3[97]: x[97] + u[97] - r[97] <= 1
 mccormick3[98]: x[98] + u[98] - r[98] <= 1
 mccormick3[99]: x[99] + u[99] - r[99] <= 1
 mccormick3[100]: x[100] + u[100] - r[100] <= 1
 mccormick3[101]: x[101] + u[101] - r[101] <= 1
 mccormick3[102]: x[102] + u[102] - r[102] <= 1
 mccormick3[103]: x[103] + u[103] - r[103] <= 1
 mccormick3[104]: x[104] + u[104] - r[104] <= 1
 mccormick3[105]: x[105] + u[105] - r[105] <= 1
 mccormick3[106]: x[106] + u[106] - r[106] <= 1
 mccormick3[107]: x[107] + u[107] - r[107] <= 1
 mccormick3[108]: x[108] + u[108] - r[108] <= 1
 mccormick3[109]: x[109] + u[109] - r[109] <= 1
 mccormick3[110]: x[110] + u[110] - r[110] <= 1
 mccormick3[111]: x[111] + u[111] - r[111] <= 1
 mccormick3[112]: x[112] + u[112] - r[112] <= 1
 mccormick3[113]: x[113] + u[113] - r[113] <= 1
 mccormick3[114]: x[114] + u[114] - r[114] <= 1
 mccormick3[115]: x[115] + u[115] - r[115] <= 1
 mccormick3[116]: x[116] + u[116] - r[116] <= 1
 mccormick3[117]: x[117] + u[117] - r[117] <= 1
 mccormick3[118]: x[118] + u[118] - r[118] <= 1
 mccormick3[119]: x[119] + u[119] - r[119] <= 1
 mccormick3[120]: x[120] + u[120] - r[120] <= 1
 mccormick3[121]: x[121] + u[121] - r[121] <= 1
 mccormick3[122]: x[122] + u[122] - r[122] <= 1
 mccormick3[123]: x[123] + u[123] - r[123] <= 1
 mccormick3[124]: x[124] + u[124] - r[124] <= 1
 mccormick3[125]: x[125] + u[125] - r[125] <= 1
 mccormick3[126]: x[126] + u[126] - r[126] <= 1
 mccormick3[127]: x[127] + u[127] - r[127] <= 1
 mccormick3[128]: x[128] + u[128] - r[128] <= 1
 mccormick3[129]: x[129] + u[129] - r[129] <= 1
 mccormick3[130]: x[130] + u[130] - r[130] <= 1
 mccormick3[131]: x[131] + u[131] - r[131] <= 1
 mccormick3[132]: x[132] + u[132] - r[132] <= 1
 mccormick3[133]: x[133] + u[133] - r[133] <= 1
 mccormick3[134]: x[134] + u[134] - r[134] <= 1
 mccormick3[135]: x[135] + u[135] - r[135] <= 1
 mccormick3[136]: x[136] + u[136] - r[136] <= 1
 mccormick3[137]: x[137] + u[137] - r[137] <= 1
 mccormick3[138]: x[138] + u[138] - r[138] <= 1
 mccormick3[139]: x[139] + u[139] - r[139] <= 1
 mccormick3[140]: x[140] + u[140] - r[140] <= 1
 mccormick3[141]: x[141] + u[141] - r[141] <= 1
 mccormick3[142]: x[142] + u[142] - r[142] <= 1
 mccormick3[143]: x[143] + u[143] - r[143] <= 1
 mccormick3[144]: x[144] + u[144] - r[144] <= 1
 mccormick3[145]: x[145] + u[145] - r[145] <= 1
 mccormick3[146]: x[146] + u[146] - r[146] <= 1
 mccormick3[147]: x[147] + u[147] - r[147] <= 1
 mccormick3[148]: x[148] + u[148] - r[148] <= 1
 mccormick3[149]: x[149] + u[149] - r[149] <= 1
Bounds
Binaries
 x[0] x[1] x[2] x[3] x[4] x[5] x[6] x[7] x[8] x[9] x[10] x[11] x[12] x[13]
 x[14] x[15] x[16] x[17] x[18] x[19] x[20] x[21] x[22] x[23] x[24] x[25]
 x[26] x[27] x[28] x[29] x[30] x[31] x[32] x[33] x[34] x[35] x[36] x[37]
 x[38] x[39] x[40] x[41] x[42] x[43] x[44] x[45] x[46] x[47] x[48] x[49]
 x[50] x[51] x[52] x[53] x[54] x[55] x[56] x[57] x[58] x[59] x[60] x[61]
 x[62] x[63] x[64] x[65] x[66] x[67] x[68] x[69] x[70] x[71] x[72] x[73]
 x[74] x[75] x[76] x[77] x[78] x[79] x[80] x[81] x[82] x[83] x[84] x[85]
 x[86] x[87] x[88] x[89] x[90] x[91] x[92] x[93] x[94] x[95] x[96] x[97]
 x[98] x[99] x[100] x[101] x[102] x[103] x[104] x[105] x[106] x[107] x[108]
 x[109] x[110] x[111] x[112] x[113] x[114] x[115] x[116] x[117] x[118]
 x[119] x[120] x[121] x[122] x[123] x[124] x[125] x[126] x[127] x[128]
 x[129] x[130] x[131] x[132] x[133] x[134] x[135] x[136] x[137] x[138]
 x[139] x[140] x[141] x[142] x[143] x[144] x[145] x[146] x[147] x[148]
 x[149] u[0] u[1] u[2] u[3] u[4] u[5] u[6] u[7] u[8] u[9] u[10] u[11] u[12]
 u[13] u[14] u[15] u[16] u[17] u[18] u[19] u[20] u[21] u[22] u[23] u[24]
 u[25] u[26] u[27] u[28] u[29] u[30] u[31] u[32] u[33] u[34] u[35] u[36]
 u[37] u[38] u[39] u[40] u[41] u[42] u[43] u[44] u[45] u[46] u[47] u[48]
 u[49] u[50] u[51] u[52] u[53] u[54] u[55] u[56] u[57] u[58] u[59] u[60]
 u[61] u[62] u[63] u[64] u[65] u[66] u[67] u[68] u[69] u[70] u[71] u[72]
 u[73] u[74] u[75] u[76] u[77] u[78] u[79] u[80] u[81] u[82] u[83] u[84]
 u[85] u[86] u[87] u[88] u[89] u[90] u[91] u[92] u[93] u[94] u[95] u[96]
 u[97] u[98] u[99] u[100] u[101] u[102] u[103] u[104] u[105] u[106] u[107]
 u[108] u[109] u[110] u[111] u[112] u[113] u[114] u[115] u[116] u[117]
 u[118] u[119] u[120] u[121] u[122] u[123] u[124] u[125] u[126] u[127]
 u[128] u[129] u[130] u[131] u[132] u[133] u[134] u[135] u[136] u[137]
 u[138] u[139] u[140] u[141] u[142] u[143] u[144] u[145] u[146] u[147]
 u[148] u[149] r[0] r[1] r[2] r[3] r[4] r[5] r[6] r[7] r[8] r[9] r[10]
 r[11] r[12] r[13] r[14] r[15] r[16] r[17] r[18] r[19] r[20] r[21] r[22]
 r[23] r[24] r[25] r[26] r[27] r[28] r[29] r[30] r[31] r[32] r[33] r[34]
 r[35] r[36] r[37] r[38] r[39] r[40] r[41] r[42] r[43] r[44] r[45] r[46]
 r[47] r[48] r[49] r[50] r[51] r[52] r[53] r[54] r[55] r[56] r[57] r[58]
 r[59] r[60] r[61] r[62] r[63] r[64] r[65] r[66] r[67] r[68] r[69] r[70]
 r[71] r[72] r[73] r[74] r[75] r[76] r[77] r[78] r[79] r[80] r[81] r[82]
 r[83] r[84] r[85] r[86] r[87] r[88] r[89] r[90] r[91] r[92] r[93] r[94]
 r[95] r[96] r[97] r[98] r[99] r[100] r[101] r[102] r[103] r[104] r[105]
 r[106] r[107] r[108] r[109] r[110] r[111] r[112] r[113] r[114] r[115]
 r[116] r[117] r[118] r[119] r[120] r[121] r[122] r[123] r[124] r[125]
 r[126] r[127] r[128] r[129] r[130] r[131] r[132] r[133] r[134] r[135]
 r[136] r[137] r[138] r[139] r[140] r[141] r[142] r[143] r[144] r[145]
 r[146] r[147] r[148] r[149]
End
