instances/knapsack/discrete_knapsack_uncertainty/knapsack_150_16.kp
22652
150
693

25 2.5 43
97 9.7 12
51 5.1 41
16 1.6 29
77 7.7 51
75 7.5 54
2 0.2 7
77 7.7 25
66 6.6 52
55 5.5 64
53 5.3 72
88 8.8 32
5 0.5 12
25 2.5 39
34 3.4 48
70 7.0 49
74 7.4 3
21 2.1 27
46 4.6 4
99 9.9 35
42 4.2 79
57 5.7 28
25 2.5 85
88 8.8 81
66 6.6 46
41 4.1 4
83 8.3 33
9 0.9 13
35 3.5 95
36 3.6 62
15 1.5 38
97 9.7 77
41 4.1 21
22 2.2 92
81 8.1 93
94 9.4 38
69 6.9 98
54 5.4 72
61 6.1 44
92 9.2 17
84 8.4 73
87 8.7 63
3 0.3 31
63 6.3 84
20 2.0 24
80 8.0 8
3 0.3 18
83 8.3 42
64 6.4 50
73 7.3 51
60 6.0 32
5 0.5 72
14 1.4 68
9 0.9 98
58 5.8 9
45 4.5 11
82 8.2 100
60 6.0 37
1 0.1 45
19 1.9 20
2 0.2 13
92 9.2 47
5 0.5 3
32 3.2 75
73 7.3 52
13 1.3 66
58 5.8 30
8 0.8 87
17 1.7 30
39 3.9 83
83 8.3 46
15 1.5 92
99 9.9 98
20 2.0 15
25 2.5 68
34 3.4 87
8 0.8 31
44 4.4 86
34 3.4 89
32 3.2 53
3 0.3 24
11 1.1 3
12 1.2 11
15 1.5 79
79 7.9 82
19 1.9 6
25 2.5 39
69 6.9 20
43 4.3 81
92 9.2 72
6 0.6 31
86 8.6 59
90 9.0 75
89 8.9 42
5 0.5 29
42 4.2 12
94 9.4 90
62 6.2 21
89 8.9 26
25 2.5 74
86 8.6 70
77 7.7 91
31 3.1 68
13 1.3 3
50 5.0 28
15 1.5 88
32 3.2 91
64 6.4 26
32 3.2 39
14 1.4 82
12 1.2 31
60 6.0 91
74 7.4 23
70 7.0 89
86 8.6 27
8 0.8 82
8 0.8 48
74 7.4 58
10 1.0 91
2 0.2 12
73 7.3 43
62 6.2 8
13 1.3 39
56 5.6 28
86 8.6 13
40 4.0 94
37 3.7 30
89 8.9 3
4 0.4 85
100 10.0 94
75 7.5 68
14 1.4 56
48 4.8 45
33 3.3 72
94 9.4 31
55 5.5 13
78 7.8 62
68 6.8 51
23 2.3 24
85 8.5 43
36 3.6 3
50 5.0 18
64 6.4 47
52 5.2 17
90 9.0 89
75 7.5 40
87 8.7 70
96 9.6 72
6 0.6 62
7 0.7 72

98890
727

[1.584478301769009 0.990539447851176 2.386890104820018 4.391196527250721 1.6052753173325198 1.8137897554501223 4.5904337392284775 2.5466420177554077 3.6945226949066257 0.34765510138391753 1.8015369775876593 0.10564604060481585 0.7469646880055206 0.40111278624369595 3.835427154679058 1.2476979300989541 1.9890866829062281 2.5331121442645386 2.044748710008699 2.3881861287127752 1.5543049320933597 4.715569733095206 0.355013511225406 2.721498202108742 0.3165237500953111 1.3937834655576156 4.057277205654409 0.8820344331484766 1.3838615166863355 2.0473965252891664 3.468590271218547 2.5623092865916224 3.3285705065084543 3.4956070912055113 3.0118359398998495 0.6772466961460888 3.6264308362577085 1.0613502082869435 1.0511796947947547 3.039957909648709 4.294573390678293 0.0573691670659865 1.9092858546322107 3.3124053541486096 2.1326055283175376 3.041321735060334 0.8785876690304821 2.2428647614818296 1.4073633847231375 2.791199215749463 4.529750021525266 1.536951146155747 4.720506557804813 2.4393343705193677 2.4536378370078635 0.24368056315637182 0.4117154953903027 0.2316831649575133 4.536241626226911 4.339521995062901 0.8950663162050635 3.50175142039879 4.61751830075068 1.5297849879526562 1.8869520165240372 1.472307786731476 1.97965371107021 0.043789836214455806 1.9830822181063432 0.31626619096022845 4.2121530781611245 1.5614567826463426 1.7871916075747722 0.056757235762909926 2.7932798414070468 2.5303252654254833 2.6396775969079584 1.25244479764271 3.0341828914931805 2.6843371123303634 0.533698663142927 2.9443788788881453 2.6076857465009846 0.2049671150569982 0.08941498507474488 1.2035130932680609 1.8723261082579357 2.1346764293349323 2.0064290477699096 2.5463213203138193 2.6923964195422068 2.6287965164098512 3.1994917958425924 2.190951730570589 4.2309925297545075 0.8283228125191513 1.6915703602753631 0.3875157359788116 2.9336504976541327 1.8854790801553756 0.5138655121236114 3.1026667967400776 3.9387846401448385 2.168696007510036 2.866495993309875 3.7430181512365963 1.8542360375361226 1.2272430917654171 1.9927220420917147 3.0173404310471934 4.206341599346038 4.189230405572894 0.9137183747672671 0.16471126696743452 1.4295044118852505 2.9093810208424076 2.8369204501767014 0.3700252578669164 0.12161630286997213 4.725589616198364 0.8647844791673771 2.0601027882301794 0.23914491485427342 2.1421096091665404 0.3946358718166455 1.007897759144917 4.1483771396384 2.8772678097410367 1.2070142836780167 0.6122751770821221 0.33672866923076905 3.441808541813296 0.7802548963086126 1.9313196336314224 4.1329764292204345 0.7465893402436723 3.004456904896525 4.355886764986448 1.802090893997607 3.2572124599768717 4.589940229952263 1.9611915111245173 3.124916599118636 3.940417047932547 0.5925046241197606 4.4502794755403965 4.804423109066189 2.583425707744558 1.903295387398713 4.286566717696551]

[28 20 26 7 4 70 45 100 33 30 12 35 8 92 45 1 89 48 33 74 57 24 40 51 53 56 78 76 30 83 18 36 56 93 64 77 60 85 60 87 63 94 62 62 75 71 18 14 95 32 7 92 5 48 73 40 93 15 24 50 97 15 64 19 72 48 45 95 68 6 10 70 50 19 8 69 47 87 65 83 30 94 11 18 14 2 24 48 86 75 53 53 9 64 24 41 53 93 8 64 5 16 50 44 93 18 19 71 51 81 51 51 49 13 81 59 59 77 29 57 72 77 8 23 17 87 96 80 87 67 30 85 99 92 69 6 85 3 66 88 31 21 99 35 1 98 58 7 93 70]
